# Objective value = 57
WA1n 0
WA1p 0
WA2n 0
WA2p 1
WB1n 0
WB1p 0
WB2n 0
WB2p 1
WC1n 1
WC1p 0
WD1n 1
WD1p 0
WE1n 1
WE1p 0
WF1n 1
WF1p 0
WG1n 0
WG1p 1
WH1n 0
WH1p 1
WI1n 0
WI1p 1
WJ1n 8
WJ1p 0
WJ2n 0
WJ2p 0
WK1n 9
WK1p 0
WK2n 0
WK2p 0
WL1n 17
WL1p 0
WT1n 12
WT1p 0
WT2n 0
WT2p 0
100 113
a 1
b 1
c 1
d 1
e 1
f 1
g 1
h 1
i 1
j 1
k 1
l 1
m 1
n 1
o 1
p 0
q 1
r 1
